(declare-fun c () String)
(declare-fun g () String)
(declare-fun b () String)
(declare-fun d () String)
(declare-fun f () String)
(declare-fun a () String)
(declare-fun h () String)
(assert (= (str.++ "db" g) "ef"))
(assert (= (str.++ f h) (str.++ b a "ef")))
(assert (= "g" (str.++ d "edd" c "d")))

(check-sat)
